unsat
(define-fun skel ((n187 Bool) (n142 Bool) (n173 Bool) (n114 Bool) (n86 Bool) (n74 Bool)) Bool (and n187 (and n142 (and n173 (and n114 (and n86 n74))))))
35.39user 0.06system 0:35.46elapsed 100%CPU (0avgtext+0avgdata 128348maxresident)k
0inputs+8outputs (0major+27549minor)pagefaults 0swaps
